NAME : block_01.339825.tour
COMMENT : Length = 339825
COMMENT : Found by LKH-3 [Keld Helsgaun] Mon Feb  2 23:04:14 2026
TYPE : TOUR
DIMENSION : 90
TOUR_SECTION
5
21
39
22
6
3
7
23
2
90
1
24
40
55
56
41
25
8
26
42
57
58
43
27
9
10
28
44
59
60
45
29
11
12
30
46
47
31
13
14
32
48
49
33
15
16
34
50
61
65
66
69
71
73
74
75
78
80
82
84
86
88
89
87
85
83
81
79
77
76
72
70
67
68
64
63
62
51
35
17
18
19
37
36
52
53
54
38
20
4
-1
EOF
